c defined variables: 4 9 13 18 22 27 31 35 36 37 38 42 46 51 55 59 64 68 72 73 74 78 82 86 87 88 89 93 97 101 105 109 113 114 118 119 120 124 128 132 133 134 138 142 146 147 148 149 153 157 161 162 163 164 168 172 173 174 178 182 186 187 188 192 196 197 198 202 206 207 208 212 219 230 234 238 242 246 247 251 260 264 268 272 276 280 290 296 300 308 313 317 321 325 329 333 334 338 339 340 344 348 352 353 354 358 362 366 367 368 369 373 377 381 382 383 384 388 392 393 394 398 402 406 407 408 412 423 428 438 443 444 447 448 451 452 453 454 457 458 459 460 463 464 467 468 471 472 475 476 477 478 479 480 483 
p cnf 1532 1670
a 351 337 401 365 397 372 376 387 391 380 58 62 77 67 81 54 49 92 34 96 437 431 415 418 411 421 405 427 434 286 283 295 267 299 312 289 275 271 279 21 25 45 16 41 30 12 1 6 332 328 306 303 361 320 357 347 324 343 218 222 225 205 211 215 201 185 195 191 50 7 26 2 3 17 63 8 254 241 259 229 245 250 233 237 316 263 123 104 127 137 100 141 85 71 108 112 152 177 167 156 117 131 145 181 160 171 0
e 5 10 11 14 15 19 20 23 24 28 29 32 33 39 40 43 44 47 48 52 53 56 57 60 61 65 66 69 70 75 76 79 80 83 84 90 91 94 95 98 99 102 103 106 107 110 111 115 116 121 122 125 126 129 130 135 136 139 140 143 144 150 151 154 155 158 159 165 166 169 170 175 176 179 180 183 184 189 190 193 194 199 200 203 204 209 210 213 214 216 217 220 221 223 224 227 228 231 232 235 236 239 240 243 244 248 249 252 253 256 257 258 261 262 265 266 269 270 273 274 277 278 281 282 284 285 287 288 292 293 294 297 298 301 302 304 305 309 310 311 314 315 318 319 322 323 326 327 330 331 335 336 341 342 345 346 349 350 355 356 359 360 363 364 370 371 374 375 378 379 385 386 389 390 395 396 399 400 403 404 409 410 413 414 416 417 419 420 424 425 426 429 430 432 433 435 436 440 441 442 445 449 450 455 456 461 462 465 466 469 470 473 474 481 482 4 9 13 18 22 27 31 35 36 37 38 42 46 51 55 59 64 68 72 73 74 78 82 86 87 88 89 93 97 101 105 109 113 114 118 119 120 124 128 132 133 134 138 142 146 147 148 149 153 157 161 162 163 164 168 172 173 174 178 182 186 187 188 192 196 197 198 202 206 207 208 212 219 230 234 238 242 246 247 251 260 264 268 272 276 280 290 296 300 308 313 317 321 325 329 333 334 338 339 340 344 348 352 353 354 358 362 366 367 368 369 373 377 381 382 383 384 388 392 393 394 398 402 406 407 408 412 423 428 438 443 444 447 448 451 452 453 454 457 458 459 460 463 464 467 468 471 472 475 476 477 478 479 480 483 1376 1377 1378 1379 1380 1381 1382 1383 1384 1385 1386 1387 1388 1389 1390 1391 1392 1393 1394 1395 1396 1397 1398 1399 1400 1401 1402 1403 1404 1405 1406 1407 1408 1409 1410 1411 1412 1413 1414 1415 1416 1417 1418 1419 1420 1421 1422 1423 1424 1425 1426 1427 1428 1429 1430 1431 1432 1433 1434 1435 1436 1437 1438 1439 1440 1441 1442 1443 1444 1445 1446 1447 1448 1449 1450 1451 1452 1453 1454 1455 1456 1457 1458 1459 1460 1461 1462 1463 1464 1465 1466 1467 1468 1469 1470 1471 1472 1473 1474 1475 1476 1477 1478 1479 1480 1481 1482 1483 1484 1485 1486 1487 1488 1489 1490 1491 1492 1493 1494 1495 1496 1497 1498 1499 1500 1501 1502 1503 1504 1505 1506 1507 1508 1509 1510 1511 1512 1513 1514 1515 1516 1517 1518 1519 1520 1521 1522 1523 1524 1525 1526 1527 1528 1529 1530 1531 1532 0
d 446 225 0
d 255 245 250 0
d 226 215 222 0
d 307 303 0
d 291 286 283 0
d 439 431 434 0
d 422 415 418 0
1377 -4 0
-1377 4 0
1378 -9 0
-1378 9 0
-1381 -13 0
1381 13 0
1382 -18 0
-1382 18 0
1383 -22 0
-1383 22 0
1384 -27 0
-1384 27 0
-1387 -31 0
1387 31 0
-1376 -35 0
1376 35 0
-1376 -36 0
1376 36 0
1379 -37 0
-1379 37 0
-1388 -38 0
1388 38 0
-1391 -42 0
1391 42 0
-1394 -46 0
1394 46 0
1395 -51 0
-1395 51 0
1396 -55 0
-1396 55 0
1397 -59 0
-1397 59 0
1398 -64 0
-1398 64 0
-1401 -68 0
1401 68 0
1389 -72 0
-1389 72 0
1385 -73 0
-1385 73 0
-1402 -74 0
1402 74 0
-1405 -78 0
1405 78 0
-1408 -82 0
1408 82 0
-1376 -86 0
1376 86 0
-1376 -87 0
1376 87 0
1392 -88 0
-1392 88 0
1409 -89 0
-1409 89 0
-1412 -93 0
1412 93 0
-1415 -97 0
1415 97 0
1416 -101 0
-1416 101 0
1417 -105 0
-1417 105 0
1418 -109 0
-1418 109 0
-1376 -113 0
1376 113 0
1419 -114 0
-1419 114 0
1403 -118 0
-1403 118 0
1399 -119 0
-1399 119 0
-1420 -120 0
1420 120 0
-1423 -124 0
1423 124 0
-1426 -128 0
1426 128 0
1410 -132 0
-1410 132 0
1406 -133 0
-1406 133 0
-1427 -134 0
1427 134 0
-1430 -138 0
1430 138 0
-1433 -142 0
1433 142 0
-1376 -146 0
1376 146 0
-1376 -147 0
1376 147 0
1413 -148 0
-1413 148 0
1434 -149 0
-1434 149 0
1435 -153 0
-1435 153 0
1436 -157 0
-1436 157 0
1421 -161 0
-1421 161 0
-1376 -162 0
1376 162 0
-1376 -163 0
1376 163 0
1437 -164 0
-1437 164 0
-1440 -168 0
1440 168 0
1428 -172 0
-1428 172 0
1424 -173 0
-1424 173 0
-1441 -174 0
1441 174 0
-1444 -178 0
1444 178 0
-1447 -182 0
1447 182 0
1448 -186 0
-1448 186 0
1431 -187 0
-1431 187 0
-1449 -188 0
1449 188 0
1450 -192 0
-1450 192 0
1442 -196 0
-1442 196 0
1438 -197 0
-1438 197 0
-1451 -198 0
1451 198 0
-1454 -202 0
1454 202 0
1455 -206 0
-1455 206 0
1445 -207 0
-1445 207 0
-1456 -208 0
1456 208 0
1377 -212 0
-1377 212 0
1378 -219 0
-1378 219 0
1382 -230 0
-1382 230 0
1383 -234 0
-1383 234 0
1384 -238 0
-1384 238 0
1457 -242 0
-1457 242 0
-1376 -246 0
1376 246 0
-1376 -247 0
1376 247 0
1458 -251 0
-1458 251 0
-1461 -260 0
1461 260 0
1395 -264 0
-1395 264 0
1396 -268 0
-1396 268 0
1397 -272 0
-1397 272 0
1398 -276 0
-1398 276 0
-1464 -280 0
1464 280 0
1465 -290 0
-1465 290 0
-1468 -296 0
1468 296 0
-1471 -300 0
1471 300 0
1459 -308 0
-1459 308 0
-1474 -313 0
1474 313 0
-1477 -317 0
1477 317 0
1416 -321 0
-1416 321 0
1417 -325 0
-1417 325 0
1418 -329 0
-1418 329 0
-1376 -333 0
1376 333 0
1478 -334 0
-1478 334 0
1466 -338 0
-1466 338 0
1462 -339 0
-1462 339 0
-1479 -340 0
1479 340 0
-1482 -344 0
1482 344 0
-1485 -348 0
1485 348 0
1472 -352 0
-1472 352 0
1469 -353 0
-1469 353 0
-1486 -354 0
1486 354 0
-1489 -358 0
1489 358 0
-1492 -362 0
1492 362 0
-1376 -366 0
1376 366 0
-1376 -367 0
1376 367 0
1475 -368 0
-1475 368 0
1493 -369 0
-1493 369 0
1435 -373 0
-1435 373 0
1436 -377 0
-1436 377 0
1480 -381 0
-1480 381 0
-1376 -382 0
1376 382 0
-1376 -383 0
1376 383 0
1494 -384 0
-1494 384 0
-1497 -388 0
1497 388 0
1487 -392 0
-1487 392 0
1483 -393 0
-1483 393 0
-1498 -394 0
1498 394 0
1501 -398 0
-1501 398 0
1504 -402 0
-1504 402 0
1505 -406 0
-1505 406 0
1490 -407 0
-1490 407 0
-1506 -408 0
1506 408 0
1450 -412 0
-1450 412 0
1495 -423 0
-1495 423 0
-1509 -428 0
1509 428 0
1510 -438 0
-1510 438 0
1511 -443 0
-1511 443 0
1511 -444 0
-1511 444 0
-1376 -447 0
1376 447 0
1512 -448 0
-1512 448 0
-1376 -451 0
1376 451 0
1513 -452 0
-1513 452 0
-1376 -453 0
1376 453 0
1514 -454 0
-1514 454 0
-1376 -457 0
1376 457 0
1515 -458 0
-1515 458 0
-1376 -459 0
1376 459 0
1516 -460 0
-1516 460 0
-1518 -463 0
1518 463 0
-1520 -464 0
1520 464 0
-1522 -467 0
1522 467 0
-1524 -468 0
1524 468 0
-1527 -471 0
1527 471 0
-1530 -472 0
1530 472 0
1525 -475 0
-1525 475 0
1507 -476 0
-1507 476 0
-1531 -477 0
1531 477 0
1528 -478 0
-1528 478 0
1452 -479 0
-1452 479 0
-1532 -480 0
1532 480 0
1376 -483 0
-1376 483 0
483 0
-483 442 482 0
-442 436 -441 0
-436 433 -435 0
-433 430 -432 0
-430 426 -429 0
-426 420 -425 0
-420 417 -419 0
-417 414 -416 0
-414 410 -413 0
-410 404 -409 0
-404 400 -403 0
-400 396 -399 0
-396 390 -395 0
-390 386 -389 0
-386 379 -385 0
-379 375 -378 0
-375 371 -374 0
-371 364 -370 0
-364 360 -363 0
-360 356 -359 0
-356 350 -355 0
-350 346 -349 0
-346 342 -345 0
-342 336 -341 0
-336 331 -335 0
-331 327 -330 0
-327 323 -326 0
-323 319 -322 0
-319 315 -318 0
-315 311 -314 0
-311 305 -310 0
-305 302 -304 0
-302 298 -301 0
-298 294 -297 0
-294 288 -293 0
-288 285 -287 0
-285 282 -284 0
-282 278 -281 0
-278 274 -277 0
-274 270 -273 0
-270 266 -269 0
-266 262 -265 0
-262 258 -261 0
-258 253 -257 0
-253 249 -252 0
-249 244 -248 0
-244 240 -243 0
-240 236 -239 0
-236 232 -235 0
-232 228 -231 0
-228 224 -227 0
-224 221 -223 0
-221 217 -220 0
-217 214 -216 0
-214 210 -213 0
-210 204 -209 0
-204 200 -203 0
-200 194 -199 0
-194 190 -193 0
-190 184 -189 0
-184 180 -183 0
-180 176 -179 0
-176 170 -175 0
-170 166 -169 0
-166 159 -165 0
-159 155 -158 0
-155 151 -154 0
-151 144 -150 0
-144 140 -143 0
-140 136 -139 0
-136 130 -135 0
-130 126 -129 0
-126 122 -125 0
-122 116 -121 0
-116 111 -115 0
-111 107 -110 0
-107 103 -106 0
-103 99 -102 0
-99 95 -98 0
-95 91 -94 0
-91 84 -90 0
-84 80 -83 0
-80 76 -79 0
-76 70 -75 0
-70 66 -69 0
-66 61 -65 0
-61 57 -60 0
-57 53 -56 0
-53 48 -52 0
-48 44 -47 0
-44 40 -43 0
-40 33 -39 0
-33 29 -32 0
-29 24 -28 0
-24 20 -23 0
-20 15 -19 0
-15 11 -14 0
-11 -5 -10 0
1 4 5 0
-1 -4 5 0
-2 -3 4 0
-4 2 0
-4 3 0
6 9 10 0
-6 -9 10 0
-7 -8 9 0
-9 7 0
-9 8 0
12 -13 14 0
-12 13 14 0
-13 -1 6 0
-13 1 -6 0
1 6 13 0
-1 -6 13 0
16 18 19 0
-16 -18 19 0
-2 -17 18 0
-18 2 0
-18 17 0
21 22 23 0
-21 -22 23 0
-7 -3 22 0
-22 7 0
-22 3 0
25 27 28 0
-25 -27 28 0
-26 -8 27 0
-27 26 0
-27 8 0
30 -31 32 0
-30 31 32 0
-31 -21 25 0
-31 21 -25 0
21 25 31 0
-21 -25 31 0
34 38 39 0
-34 -38 39 0
-36 37 38 0
36 -37 38 0
-36 -37 38 0
-12 -35 36 0
-2 2 35 0
-1 -6 37 0
-38 36 37 0
-36 12 0
-36 35 0
-35 2 0
-35 -2 0
-37 1 0
-37 6 0
41 -42 43 0
-41 42 43 0
-42 -30 34 0
-42 30 -34 0
30 34 42 0
-30 -34 42 0
45 -46 47 0
-45 46 47 0
-46 -16 41 0
-46 16 -41 0
16 41 46 0
-16 -41 46 0
49 51 52 0
-49 -51 52 0
-2 -50 51 0
-51 2 0
-51 50 0
54 55 56 0
-54 -55 56 0
-7 -17 55 0
-55 7 0
-55 17 0
58 59 60 0
-58 -59 60 0
-26 -3 59 0
-59 26 0
-59 3 0
62 64 65 0
-62 -64 65 0
-63 -8 64 0
-64 63 0
-64 8 0
67 -68 69 0
-67 68 69 0
-68 -58 62 0
-68 58 -62 0
58 62 68 0
-58 -62 68 0
71 74 75 0
-71 -74 75 0
-72 73 74 0
72 -73 74 0
-72 -73 74 0
-30 -34 72 0
-21 -25 73 0
-74 72 73 0
-72 30 0
-72 34 0
-73 21 0
-73 25 0
77 -78 79 0
-77 78 79 0
-78 -67 71 0
-78 67 -71 0
67 71 78 0
-67 -71 78 0
81 -82 83 0
-81 82 83 0
-82 -54 77 0
-82 54 -77 0
54 77 82 0
-54 -77 82 0
85 89 90 0
-85 -89 90 0
-87 88 89 0
87 -88 89 0
-87 -88 89 0
-45 -86 87 0
-2 2 86 0
-16 -41 88 0
-89 87 88 0
-87 45 0
-87 86 0
-86 2 0
-86 -2 0
-88 16 0
-88 41 0
92 -93 94 0
-92 93 94 0
-93 -81 85 0
-93 81 -85 0
81 85 93 0
-81 -85 93 0
96 -97 98 0
-96 97 98 0
-97 -49 92 0
-97 49 -92 0
49 92 97 0
-49 -92 97 0
100 101 102 0
-100 -101 102 0
-7 -50 101 0
-101 7 0
-101 50 0
104 105 106 0
-104 -105 106 0
-26 -17 105 0
-105 26 0
-105 17 0
108 109 110 0
-108 -109 110 0
-63 -3 109 0
-109 63 0
-109 3 0
112 -114 115 0
-112 114 115 0
-114 -108 113 0
-114 108 -113 0
-113 2 0
-113 -2 0
-2 2 113 0
108 113 114 0
-108 -113 114 0
-2 2 113 0
-113 2 0
-113 -2 0
117 120 121 0
-117 -120 121 0
-118 119 120 0
118 -119 120 0
-118 -119 120 0
-67 -71 118 0
-58 -62 119 0
-120 118 119 0
-118 67 0
-118 71 0
-119 58 0
-119 62 0
123 -124 125 0
-123 124 125 0
-124 -112 117 0
-124 112 -117 0
112 117 124 0
-112 -117 124 0
127 -128 129 0
-127 128 129 0
-128 -104 123 0
-128 104 -123 0
104 123 128 0
-104 -123 128 0
131 134 135 0
-131 -134 135 0
-132 133 134 0
132 -133 134 0
-132 -133 134 0
-81 -85 132 0
-54 -77 133 0
-134 132 133 0
-132 81 0
-132 85 0
-133 54 0
-133 77 0
137 -138 139 0
-137 138 139 0
-138 -127 131 0
-138 127 -131 0
127 131 138 0
-127 -131 138 0
141 -142 143 0
-141 142 143 0
-142 -100 137 0
-142 100 -137 0
100 137 142 0
-100 -137 142 0
145 149 150 0
-145 -149 150 0
-147 148 149 0
147 -148 149 0
-147 -148 149 0
-96 -146 147 0
-2 2 146 0
-49 -92 148 0
-149 147 148 0
-147 96 0
-147 146 0
-146 2 0
-146 -2 0
-148 49 0
-148 92 0
152 153 154 0
-152 -153 154 0
-26 -50 153 0
-153 26 0
-153 50 0
156 157 158 0
-156 -157 158 0
-63 -17 157 0
-157 63 0
-157 17 0
160 164 165 0
-160 -164 165 0
-161 163 164 0
161 -163 164 0
-161 -163 164 0
-112 -117 161 0
-108 -162 163 0
-2 2 162 0
-164 161 163 0
-161 112 0
-161 117 0
-163 108 0
-163 162 0
-162 2 0
-162 -2 0
167 -168 169 0
-167 168 169 0
-168 -156 160 0
-168 156 -160 0
156 160 168 0
-156 -160 168 0
171 174 175 0
-171 -174 175 0
-172 173 174 0
172 -173 174 0
-172 -173 174 0
-127 -131 172 0
-104 -123 173 0
-174 172 173 0
-172 127 0
-172 131 0
-173 104 0
-173 123 0
177 -178 179 0
-177 178 179 0
-178 -167 171 0
-178 167 -171 0
167 171 178 0
-167 -171 178 0
181 -182 183 0
-181 182 183 0
-182 -152 177 0
-182 152 -177 0
152 177 182 0
-152 -177 182 0
185 188 189 0
-185 -188 189 0
-186 187 188 0
186 -187 188 0
-186 -187 188 0
-141 -145 186 0
-100 -137 187 0
-188 186 187 0
-186 141 0
-186 145 0
-187 100 0
-187 137 0
191 192 193 0
-191 -192 193 0
-63 -50 192 0
-192 63 0
-192 50 0
195 198 199 0
-195 -198 199 0
-196 197 198 0
196 -197 198 0
-196 -197 198 0
-167 -171 196 0
-156 -160 197 0
-198 196 197 0
-196 167 0
-196 171 0
-197 156 0
-197 160 0
201 -202 203 0
-201 202 203 0
-202 -191 195 0
-202 191 -195 0
191 195 202 0
-191 -195 202 0
205 208 209 0
-205 -208 209 0
-206 207 208 0
206 -207 208 0
-206 -207 208 0
-181 -185 206 0
-152 -177 207 0
-208 206 207 0
-206 181 0
-206 185 0
-207 152 0
-207 177 0
211 212 213 0
-211 -212 213 0
-2 -3 212 0
-212 2 0
-212 3 0
215 211 216 0
-215 -211 216 0
218 219 220 0
-218 -219 220 0
-7 -8 219 0
-219 7 0
-219 8 0
222 218 223 0
-222 -218 223 0
225 226 227 0
-225 -226 227 0
229 230 231 0
-229 -230 231 0
-2 -17 230 0
-230 2 0
-230 17 0
233 234 235 0
-233 -234 235 0
-7 -3 234 0
-234 7 0
-234 3 0
237 238 239 0
-237 -238 239 0
-26 -8 238 0
-238 26 0
-238 8 0
241 -242 243 0
-241 242 243 0
-242 233 0
-242 237 0
-233 -237 242 0
245 247 248 0
-245 -247 248 0
-226 -246 247 0
-2 2 246 0
-247 226 0
-247 246 0
-246 2 0
-246 -2 0
250 251 252 0
-250 -251 252 0
-211 -218 251 0
-251 211 0
-251 218 0
254 -256 257 0
-254 256 257 0
-256 -241 255 0
-256 241 -255 0
241 255 256 0
-241 -255 256 0
259 -260 261 0
-259 260 261 0
-260 -229 254 0
-260 229 -254 0
229 254 260 0
-229 -254 260 0
263 264 265 0
-263 -264 265 0
-2 -50 264 0
-264 2 0
-264 50 0
267 268 269 0
-267 -268 269 0
-7 -17 268 0
-268 7 0
-268 17 0
271 272 273 0
-271 -272 273 0
-26 -3 272 0
-272 26 0
-272 3 0
275 276 277 0
-275 -276 277 0
-63 -8 276 0
-276 63 0
-276 8 0
279 -280 281 0
-279 280 281 0
-280 -271 275 0
-280 271 -275 0
271 275 280 0
-271 -275 280 0
283 233 284 0
-283 -233 284 0
286 237 287 0
-286 -237 287 0
289 292 293 0
-289 -292 293 0
-290 291 292 0
290 -291 292 0
-290 -291 292 0
-241 -255 290 0
-292 290 291 0
-290 241 0
-290 255 0
295 -296 297 0
-295 296 297 0
-296 -279 289 0
-296 279 -289 0
279 289 296 0
-279 -289 296 0
299 -300 301 0
-299 300 301 0
-300 -267 295 0
-300 267 -295 0
267 295 300 0
-267 -295 300 0
303 259 304 0
-303 -259 304 0
306 309 310 0
-306 -309 310 0
-307 308 309 0
307 -308 309 0
-307 -308 309 0
-229 -254 308 0
-309 307 308 0
-308 229 0
-308 254 0
312 -313 314 0
-312 313 314 0
-313 -299 306 0
-313 299 -306 0
299 306 313 0
-299 -306 313 0
316 -317 318 0
-316 317 318 0
-317 -263 312 0
-317 263 -312 0
263 312 317 0
-263 -312 317 0
320 321 322 0
-320 -321 322 0
-7 -50 321 0
-321 7 0
-321 50 0
324 325 326 0
-324 -325 326 0
-26 -17 325 0
-325 26 0
-325 17 0
328 329 330 0
-328 -329 330 0
-63 -3 329 0
-329 63 0
-329 3 0
332 -334 335 0
-332 334 335 0
-334 -328 333 0
-334 328 -333 0
-333 2 0
-333 -2 0
-2 2 333 0
328 333 334 0
-328 -333 334 0
-2 2 333 0
-333 2 0
-333 -2 0
337 340 341 0
-337 -340 341 0
-338 339 340 0
338 -339 340 0
-338 -339 340 0
-279 -289 338 0
-271 -275 339 0
-340 338 339 0
-338 279 0
-338 289 0
-339 271 0
-339 275 0
343 -344 345 0
-343 344 345 0
-344 -332 337 0
-344 332 -337 0
332 337 344 0
-332 -337 344 0
347 -348 349 0
-347 348 349 0
-348 -324 343 0
-348 324 -343 0
324 343 348 0
-324 -343 348 0
351 354 355 0
-351 -354 355 0
-352 353 354 0
352 -353 354 0
-352 -353 354 0
-299 -306 352 0
-267 -295 353 0
-354 352 353 0
-352 299 0
-352 306 0
-353 267 0
-353 295 0
357 -358 359 0
-357 358 359 0
-358 -347 351 0
-358 347 -351 0
347 351 358 0
-347 -351 358 0
361 -362 363 0
-361 362 363 0
-362 -320 357 0
-362 320 -357 0
320 357 362 0
-320 -357 362 0
365 369 370 0
-365 -369 370 0
-367 368 369 0
367 -368 369 0
-367 -368 369 0
-316 -366 367 0
-2 2 366 0
-263 -312 368 0
-369 367 368 0
-367 316 0
-367 366 0
-366 2 0
-366 -2 0
-368 263 0
-368 312 0
372 373 374 0
-372 -373 374 0
-26 -50 373 0
-373 26 0
-373 50 0
376 377 378 0
-376 -377 378 0
-63 -17 377 0
-377 63 0
-377 17 0
380 384 385 0
-380 -384 385 0
-381 383 384 0
381 -383 384 0
-381 -383 384 0
-332 -337 381 0
-328 -382 383 0
-2 2 382 0
-384 381 383 0
-381 332 0
-381 337 0
-383 328 0
-383 382 0
-382 2 0
-382 -2 0
387 -388 389 0
-387 388 389 0
-388 -376 380 0
-388 376 -380 0
376 380 388 0
-376 -380 388 0
391 394 395 0
-391 -394 395 0
-392 393 394 0
392 -393 394 0
-392 -393 394 0
-347 -351 392 0
-324 -343 393 0
-394 392 393 0
-392 347 0
-392 351 0
-393 324 0
-393 343 0
397 -398 399 0
-397 398 399 0
-398 -387 391 0
-398 387 -391 0
387 391 398 0
-387 -391 398 0
401 -402 403 0
-401 402 403 0
-402 -372 397 0
-402 372 -397 0
372 397 402 0
-372 -397 402 0
405 408 409 0
-405 -408 409 0
-406 407 408 0
406 -407 408 0
-406 -407 408 0
-361 -365 406 0
-320 -357 407 0
-408 406 407 0
-406 361 0
-406 365 0
-407 320 0
-407 357 0
411 412 413 0
-411 -412 413 0
-63 -50 412 0
-412 63 0
-412 50 0
415 387 416 0
-415 -387 416 0
418 391 419 0
-418 -391 419 0
421 424 425 0
-421 -424 425 0
-422 423 424 0
422 -423 424 0
-422 -423 424 0
-376 -380 423 0
-424 422 423 0
-423 376 0
-423 380 0
427 -428 429 0
-427 428 429 0
-428 -411 421 0
-428 411 -421 0
411 421 428 0
-411 -421 428 0
431 372 432 0
-431 -372 432 0
434 397 435 0
-434 -397 435 0
437 440 441 0
-437 -440 441 0
-438 439 440 0
438 -439 440 0
-438 -439 440 0
-401 -405 438 0
-440 438 439 0
-438 401 0
-438 405 0
-482 474 0
-482 481 0
-474 470 0
-474 473 0
-470 466 0
-470 469 0
-466 462 0
-466 465 0
-462 456 0
-462 461 0
-456 450 0
-456 455 0
-450 445 0
-450 449 0
-445 -443 444 0
-445 443 -444 0
-443 2 0
-443 8 0
-444 2 0
-444 8 0
-2 -8 443 0
-2 -8 444 0
-449 -446 -448 0
-449 446 448 0
12 447 448 0
-12 -447 448 0
-2 2 447 0
-447 2 0
-447 -2 0
-448 -12 447 0
-448 12 -447 0
-447 2 0
-447 -2 0
-2 2 447 0
-455 452 -454 0
-455 -452 454 0
259 451 452 0
-259 -451 452 0
-2 2 451 0
-451 2 0
-451 -2 0
45 453 454 0
-45 -453 454 0
-2 2 453 0
-453 2 0
-453 -2 0
-452 -259 451 0
-452 259 -451 0
-451 2 0
-451 -2 0
-2 2 451 0
-454 -45 453 0
-454 45 -453 0
-453 2 0
-453 -2 0
-2 2 453 0
-461 458 -460 0
-461 -458 460 0
316 457 458 0
-316 -457 458 0
-2 2 457 0
-457 2 0
-457 -2 0
96 459 460 0
-96 -459 460 0
-2 2 459 0
-459 2 0
-459 -2 0
-458 -316 457 0
-458 316 -457 0
-457 2 0
-457 -2 0
-2 2 457 0
-460 -96 459 0
-460 96 -459 0
-459 2 0
-459 -2 0
-2 2 459 0
-465 463 -464 0
-465 -463 464 0
361 365 463 0
-361 -365 463 0
141 145 464 0
-141 -145 464 0
-463 -361 365 0
-463 361 -365 0
-464 -141 145 0
-464 141 -145 0
-469 467 -468 0
-469 -467 468 0
401 405 467 0
-401 -405 467 0
181 185 468 0
-181 -185 468 0
-467 -401 405 0
-467 401 -405 0
-468 -181 185 0
-468 181 -185 0
-473 471 -472 0
-473 -471 472 0
427 437 471 0
-427 -437 471 0
201 205 472 0
-201 -205 472 0
-471 -427 437 0
-471 427 -437 0
-472 -201 205 0
-472 201 -205 0
-481 -477 480 0
-481 477 -480 0
-477 475 476 0
-475 427 0
-475 437 0
-476 411 0
-476 421 0
-480 478 479 0
-478 201 0
-478 205 0
-479 191 0
-479 195 0
-475 476 477 0
475 -476 477 0
-475 -476 477 0
-427 -437 475 0
-411 -421 476 0
-478 479 480 0
478 -479 480 0
-478 -479 480 0
-201 -205 478 0
-191 -195 479 0
1376 0
2 -1377 0
3 -1377 0
-2 -3 1377 0
7 -1378 0
8 -1378 0
-7 -8 1378 0
1 -1379 0
6 -1379 0
-1 -6 1379 0
-1 -1380 0
-6 -1380 0
1 6 1380 0
-1379 -1381 0
-1380 -1381 0
1379 1380 1381 0
2 -1382 0
17 -1382 0
-2 -17 1382 0
7 -1383 0
3 -1383 0
-7 -3 1383 0
26 -1384 0
8 -1384 0
-26 -8 1384 0
21 -1385 0
25 -1385 0
-21 -25 1385 0
-21 -1386 0
-25 -1386 0
21 25 1386 0
-1385 -1387 0
-1386 -1387 0
1385 1386 1387 0
-36 -1388 0
-37 -1388 0
36 37 1388 0
34 -1389 0
30 -1389 0
-34 -30 1389 0
-34 -1390 0
-30 -1390 0
34 30 1390 0
-1389 -1391 0
-1390 -1391 0
1389 1390 1391 0
16 -1392 0
41 -1392 0
-16 -41 1392 0
-16 -1393 0
-41 -1393 0
16 41 1393 0
-1392 -1394 0
-1393 -1394 0
1392 1393 1394 0
50 -1395 0
2 -1395 0
-50 -2 1395 0
7 -1396 0
17 -1396 0
-7 -17 1396 0
26 -1397 0
3 -1397 0
-26 -3 1397 0
63 -1398 0
8 -1398 0
-63 -8 1398 0
58 -1399 0
62 -1399 0
-58 -62 1399 0
-58 -1400 0
-62 -1400 0
58 62 1400 0
-1399 -1401 0
-1400 -1401 0
1399 1400 1401 0
-72 -1402 0
-73 -1402 0
72 73 1402 0
67 -1403 0
71 -1403 0
-67 -71 1403 0
-67 -1404 0
-71 -1404 0
67 71 1404 0
-1403 -1405 0
-1404 -1405 0
1403 1404 1405 0
77 -1406 0
54 -1406 0
-77 -54 1406 0
-77 -1407 0
-54 -1407 0
77 54 1407 0
-1406 -1408 0
-1407 -1408 0
1406 1407 1408 0
-87 -1409 0
88 -1409 0
87 -88 1409 0
81 -1410 0
85 -1410 0
-81 -85 1410 0
-81 -1411 0
-85 -1411 0
81 85 1411 0
-1410 -1412 0
-1411 -1412 0
1410 1411 1412 0
49 -1413 0
92 -1413 0
-49 -92 1413 0
-49 -1414 0
-92 -1414 0
49 92 1414 0
-1413 -1415 0
-1414 -1415 0
1413 1414 1415 0
50 -1416 0
7 -1416 0
-50 -7 1416 0
26 -1417 0
17 -1417 0
-26 -17 1417 0
3 -1418 0
63 -1418 0
-3 -63 1418 0
-108 -1419 0
-113 -1419 0
108 113 1419 0
-118 -1420 0
-119 -1420 0
118 119 1420 0
112 -1421 0
117 -1421 0
-112 -117 1421 0
-112 -1422 0
-117 -1422 0
112 117 1422 0
-1421 -1423 0
-1422 -1423 0
1421 1422 1423 0
123 -1424 0
104 -1424 0
-123 -104 1424 0
-123 -1425 0
-104 -1425 0
123 104 1425 0
-1424 -1426 0
-1425 -1426 0
1424 1425 1426 0
-132 -1427 0
-133 -1427 0
132 133 1427 0
127 -1428 0
131 -1428 0
-127 -131 1428 0
-127 -1429 0
-131 -1429 0
127 131 1429 0
-1428 -1430 0
-1429 -1430 0
1428 1429 1430 0
137 -1431 0
100 -1431 0
-137 -100 1431 0
-137 -1432 0
-100 -1432 0
137 100 1432 0
-1431 -1433 0
-1432 -1433 0
1431 1432 1433 0
-147 -1434 0
148 -1434 0
147 -148 1434 0
50 -1435 0
26 -1435 0
-50 -26 1435 0
17 -1436 0
63 -1436 0
-17 -63 1436 0
161 -1437 0
-163 -1437 0
-161 163 1437 0
156 -1438 0
160 -1438 0
-156 -160 1438 0
-156 -1439 0
-160 -1439 0
156 160 1439 0
-1438 -1440 0
-1439 -1440 0
1438 1439 1440 0
-172 -1441 0
-173 -1441 0
172 173 1441 0
167 -1442 0
171 -1442 0
-167 -171 1442 0
-167 -1443 0
-171 -1443 0
167 171 1443 0
-1442 -1444 0
-1443 -1444 0
1442 1443 1444 0
152 -1445 0
177 -1445 0
-152 -177 1445 0
-152 -1446 0
-177 -1446 0
152 177 1446 0
-1445 -1447 0
-1446 -1447 0
1445 1446 1447 0
141 -1448 0
145 -1448 0
-141 -145 1448 0
-186 -1449 0
-187 -1449 0
186 187 1449 0
50 -1450 0
63 -1450 0
-50 -63 1450 0
-196 -1451 0
-197 -1451 0
196 197 1451 0
195 -1452 0
191 -1452 0
-195 -191 1452 0
-195 -1453 0
-191 -1453 0
195 191 1453 0
-1452 -1454 0
-1453 -1454 0
1452 1453 1454 0
185 -1455 0
181 -1455 0
-185 -181 1455 0
-206 -1456 0
-207 -1456 0
206 207 1456 0
233 -1457 0
237 -1457 0
-233 -237 1457 0
218 -1458 0
211 -1458 0
-218 -211 1458 0
254 -1459 0
229 -1459 0
-254 -229 1459 0
-254 -1460 0
-229 -1460 0
254 229 1460 0
-1459 -1461 0
-1460 -1461 0
1459 1460 1461 0
275 -1462 0
271 -1462 0
-275 -271 1462 0
-275 -1463 0
-271 -1463 0
275 271 1463 0
-1462 -1464 0
-1463 -1464 0
1462 1463 1464 0
241 -1465 0
256 -1465 0
-241 -256 1465 0
289 -1466 0
279 -1466 0
-289 -279 1466 0
-289 -1467 0
-279 -1467 0
289 279 1467 0
-1466 -1468 0
-1467 -1468 0
1466 1467 1468 0
295 -1469 0
267 -1469 0
-295 -267 1469 0
-295 -1470 0
-267 -1470 0
295 267 1470 0
-1469 -1471 0
-1470 -1471 0
1469 1470 1471 0
299 -1472 0
306 -1472 0
-299 -306 1472 0
-299 -1473 0
-306 -1473 0
299 306 1473 0
-1472 -1474 0
-1473 -1474 0
1472 1473 1474 0
312 -1475 0
263 -1475 0
-312 -263 1475 0
-312 -1476 0
-263 -1476 0
312 263 1476 0
-1475 -1477 0
-1476 -1477 0
1475 1476 1477 0
-328 -1478 0
-333 -1478 0
328 333 1478 0
-338 -1479 0
-339 -1479 0
338 339 1479 0
337 -1480 0
332 -1480 0
-337 -332 1480 0
-337 -1481 0
-332 -1481 0
337 332 1481 0
-1480 -1482 0
-1481 -1482 0
1480 1481 1482 0
324 -1483 0
343 -1483 0
-324 -343 1483 0
-324 -1484 0
-343 -1484 0
324 343 1484 0
-1483 -1485 0
-1484 -1485 0
1483 1484 1485 0
-352 -1486 0
-353 -1486 0
352 353 1486 0
351 -1487 0
347 -1487 0
-351 -347 1487 0
-351 -1488 0
-347 -1488 0
351 347 1488 0
-1487 -1489 0
-1488 -1489 0
1487 1488 1489 0
320 -1490 0
357 -1490 0
-320 -357 1490 0
-320 -1491 0
-357 -1491 0
320 357 1491 0
-1490 -1492 0
-1491 -1492 0
1490 1491 1492 0
-367 -1493 0
368 -1493 0
367 -368 1493 0
381 -1494 0
-383 -1494 0
-381 383 1494 0
376 -1495 0
380 -1495 0
-376 -380 1495 0
-376 -1496 0
-380 -1496 0
376 380 1496 0
-1495 -1497 0
-1496 -1497 0
1495 1496 1497 0
-392 -1498 0
-393 -1498 0
392 393 1498 0
387 -1499 0
-391 -1499 0
-387 391 1499 0
-387 -1500 0
391 -1500 0
387 -391 1500 0
-1499 -1501 0
-1500 -1501 0
1499 1500 1501 0
397 -1502 0
-372 -1502 0
-397 372 1502 0
-397 -1503 0
372 -1503 0
397 -372 1503 0
-1502 -1504 0
-1503 -1504 0
1502 1503 1504 0
365 -1505 0
361 -1505 0
-365 -361 1505 0
-406 -1506 0
-407 -1506 0
406 407 1506 0
411 -1507 0
421 -1507 0
-411 -421 1507 0
-411 -1508 0
-421 -1508 0
411 421 1508 0
-1507 -1509 0
-1508 -1509 0
1507 1508 1509 0
401 -1510 0
405 -1510 0
-401 -405 1510 0
2 -1511 0
8 -1511 0
-2 -8 1511 0
-12 -1512 0
-447 -1512 0
12 447 1512 0
-259 -1513 0
-451 -1513 0
259 451 1513 0
-45 -1514 0
-453 -1514 0
45 453 1514 0
-316 -1515 0
-457 -1515 0
316 457 1515 0
-96 -1516 0
-459 -1516 0
96 459 1516 0
-365 -1517 0
-361 -1517 0
365 361 1517 0
-1505 -1518 0
-1517 -1518 0
1505 1517 1518 0
-141 -1519 0
-145 -1519 0
141 145 1519 0
-1448 -1520 0
-1519 -1520 0
1448 1519 1520 0
-401 -1521 0
-405 -1521 0
401 405 1521 0
-1510 -1522 0
-1521 -1522 0
1510 1521 1522 0
-185 -1523 0
-181 -1523 0
185 181 1523 0
-1455 -1524 0
-1523 -1524 0
1455 1523 1524 0
437 -1525 0
427 -1525 0
-437 -427 1525 0
-437 -1526 0
-427 -1526 0
437 427 1526 0
-1525 -1527 0
-1526 -1527 0
1525 1526 1527 0
205 -1528 0
201 -1528 0
-205 -201 1528 0
-205 -1529 0
-201 -1529 0
205 201 1529 0
-1528 -1530 0
-1529 -1530 0
1528 1529 1530 0
-475 -1531 0
-476 -1531 0
475 476 1531 0
-478 -1532 0
-479 -1532 0
478 479 1532 0
